
Gurobi 6.5.2 (win64) logging started 07/22/16 20:28:52


Gurobi 6.5.2 (win64) logging started 07/22/16 20:28:52

Optimize a model with 1217 rows, 588 columns and 3366 nonzeros
Coefficient statistics:
  Matrix range    [6e-08, 1e+03]
  Objective range [1e+00, 1e+00]
  Bounds range    [1e+00, 1e+00]
  RHS range       [6e-06, 1e+03]
Presolve removed 1010 rows and 375 columns
Presolve time: 0.02s
Presolved: 207 rows, 213 columns, 948 nonzeros
Variable types: 213 continuous, 0 integer (0 binary)

Root relaxation: objective 1.528567e+02, 227 iterations, 0.00 seconds

    Nodes    |    Current Node    |     Objective Bounds      |     Work
 Expl Unexpl |  Obj  Depth IntInf | Incumbent    BestBd   Gap | It/Node Time

*    0     0               0     152.8566876  152.85669  0.00%     -    0s

Explored 0 nodes (227 simplex iterations) in 0.02 seconds
Thread count was 8 (of 8 available processors)

Optimal solution found (tolerance 1.00e-04)
Best objective 1.528566875718e+02, best bound 1.528566875718e+02, gap 0.0%

Wrote requested result file 'H1\instance3\\Results3EC_Sol3.lp'

